NAME: tsp45_12
COMMENT: 45-tsp problem (Padberg/Rinaldi)
TYPE: TSP
DIMENSION: 45
EDGE_WEIGHT_TYPE : EUC_2D
NODE_COORD_SECTION
1 8 17
2 33 33
3 1 24
4 37 4
5 30 10
6 8 11
7 6 21
8 38 11
9 16 22
10 0 9
11 15 16
12 15 18
13 36 37
14 11 28
15 37 28
16 18 22
17 39 35
18 24 34
19 3 25
20 31 28
21 31 29
22 28 38
23 17 26
24 35 20
25 36 23
26 2 25
27 18 13
28 4 5
29 23 32
30 38 31
31 35 28
32 31 15
33 11 17
34 30 3
35 38 32
36 15 34
37 34 38
38 40 10
39 2 21
40 14 8
41 18 25
42 2 11
43 7 9
44 10 28
45 10 11
